c cksystemsgroup.github.io/unicorn
c CNF contains a total of 1039 clauses.
c CNF contains a total of 329 variables.
c CNF clauses cover 1 bad states.
c Variable name mapping (113 names):
c   1: input[bit=0]
c   2: input[bit=0]
c   5: input[bit=1]
c   6: input[bit=1]
c   10: input[bit=2]
c   11: input[bit=2]
c   15: input[bit=3]
c   16: input[bit=3]
c   21: input[bit=4]
c   22: input[bit=4]
c   26: input[bit=5]
c   27: input[bit=5]
c   31: input[bit=6]
c   32: input[bit=6]
c   36: input[bit=7]
c   37: input[bit=7]
c   42: input[bit=8]
c   43: input[bit=8]
c   48: input[bit=9]
c   49: input[bit=9]
c   54: input[bit=10]
c   55: input[bit=10]
c   60: input[bit=11]
c   61: input[bit=11]
c   66: input[bit=12]
c   67: input[bit=12]
c   72: input[bit=13]
c   73: input[bit=13]
c   78: input[bit=14]
c   79: input[bit=14]
c   84: input[bit=15]
c   85: input[bit=15]
c   90: input[bit=16]
c   91: input[bit=16]
c   96: input[bit=17]
c   97: input[bit=17]
c   102: input[bit=18]
c   103: input[bit=18]
c   108: input[bit=19]
c   109: input[bit=19]
c   114: input[bit=20]
c   115: input[bit=20]
c   120: input[bit=21]
c   121: input[bit=21]
c   126: input[bit=22]
c   127: input[bit=22]
c   132: input[bit=23]
c   133: input[bit=23]
c   138: input[bit=24]
c   139: input[bit=24]
c   144: input[bit=25]
c   145: input[bit=25]
c   150: input[bit=26]
c   151: input[bit=26]
c   156: input[bit=27]
c   157: input[bit=27]
c   162: input[bit=28]
c   163: input[bit=28]
c   168: input[bit=29]
c   169: input[bit=29]
c   174: input[bit=30]
c   175: input[bit=30]
c   180: input[bit=31]
c   181: input[bit=31]
c   186: input[bit=32]
c   187: input[bit=32]
c   192: input[bit=33]
c   193: input[bit=33]
c   198: input[bit=34]
c   199: input[bit=34]
c   204: input[bit=35]
c   205: input[bit=35]
c   210: input[bit=36]
c   211: input[bit=36]
c   216: input[bit=37]
c   217: input[bit=37]
c   222: input[bit=38]
c   223: input[bit=38]
c   228: input[bit=39]
c   229: input[bit=39]
c   234: input[bit=40]
c   235: input[bit=40]
c   240: input[bit=41]
c   241: input[bit=41]
c   246: input[bit=42]
c   247: input[bit=42]
c   252: input[bit=43]
c   253: input[bit=43]
c   258: input[bit=44]
c   259: input[bit=44]
c   264: input[bit=45]
c   265: input[bit=45]
c   270: input[bit=46]
c   271: input[bit=46]
c   276: input[bit=47]
c   277: input[bit=47]
c   282: input[bit=48]
c   283: input[bit=48]
c   288: input[bit=49]
c   289: input[bit=49]
c   294: input[bit=50]
c   295: input[bit=50]
c   300: input[bit=51]
c   301: input[bit=51]
c   306: input[bit=52]
c   307: input[bit=52]
c   312: input[bit=53]
c   313: input[bit=53]
c   318: input[bit=54]
c   319: input[bit=54]
c   324: input[bit=55]
c   325: input[bit=55]
c   329: ?
p cnf 329 1039
1 2 -3 0
1 -2 3 0
-1 2 3 0
-1 -2 -3 0
-3 -4 0
3 4 0
-1 -2 7 0
1 -7 0
2 -7 0
5 6 7 -8 0
5 6 -7 8 0
5 -6 7 8 0
5 -6 -7 -8 0
-5 6 7 8 0
-5 6 -7 -8 0
-5 -6 7 -8 0
-5 -6 -7 8 0
-4 -8 9 0
4 -9 0
8 -9 0
5 6 -12 0
5 7 -12 0
-6 -7 12 0
6 7 -12 0
-5 -7 12 0
-5 -6 12 0
10 11 12 -13 0
10 11 -12 13 0
10 -11 12 13 0
10 -11 -12 -13 0
-10 11 12 13 0
-10 11 -12 -13 0
-10 -11 12 -13 0
-10 -11 -12 13 0
-9 -13 14 0
9 -14 0
13 -14 0
10 11 -17 0
10 12 -17 0
-11 -12 17 0
11 12 -17 0
-10 -12 17 0
-10 -11 17 0
15 16 17 -18 0
15 16 -17 18 0
15 -16 17 18 0
15 -16 -17 -18 0
-15 16 17 18 0
-15 16 -17 -18 0
-15 -16 17 -18 0
-15 -16 -17 18 0
-18 -19 0
18 19 0
-14 -19 20 0
14 -20 0
19 -20 0
15 16 -23 0
15 17 -23 0
-16 -17 23 0
16 17 -23 0
-15 -17 23 0
-15 -16 23 0
21 22 23 -24 0
21 22 -23 24 0
21 -22 23 24 0
21 -22 -23 -24 0
-21 22 23 24 0
-21 22 -23 -24 0
-21 -22 23 -24 0
-21 -22 -23 24 0
-20 -24 25 0
20 -25 0
24 -25 0
21 22 -28 0
21 23 -28 0
-22 -23 28 0
22 23 -28 0
-21 -23 28 0
-21 -22 28 0
26 27 28 -29 0
26 27 -28 29 0
26 -27 28 29 0
26 -27 -28 -29 0
-26 27 28 29 0
-26 27 -28 -29 0
-26 -27 28 -29 0
-26 -27 -28 29 0
-25 -29 30 0
25 -30 0
29 -30 0
26 27 -33 0
26 28 -33 0
-27 -28 33 0
27 28 -33 0
-26 -28 33 0
-26 -27 33 0
31 32 33 -34 0
31 32 -33 34 0
31 -32 33 34 0
31 -32 -33 -34 0
-31 32 33 34 0
-31 32 -33 -34 0
-31 -32 33 -34 0
-31 -32 -33 34 0
-30 -34 35 0
30 -35 0
34 -35 0
31 32 -38 0
31 33 -38 0
-32 -33 38 0
32 33 -38 0
-31 -33 38 0
-31 -32 38 0
36 37 38 -39 0
36 37 -38 39 0
36 -37 38 39 0
36 -37 -38 -39 0
-36 37 38 39 0
-36 37 -38 -39 0
-36 -37 38 -39 0
-36 -37 -38 39 0
-39 -40 0
39 40 0
-35 -40 41 0
35 -41 0
40 -41 0
36 37 -44 0
36 38 -44 0
-37 -38 44 0
37 38 -44 0
-36 -38 44 0
-36 -37 44 0
42 43 44 -45 0
42 43 -44 45 0
42 -43 44 45 0
42 -43 -44 -45 0
-42 43 44 45 0
-42 43 -44 -45 0
-42 -43 44 -45 0
-42 -43 -44 45 0
-45 -46 0
45 46 0
-41 -46 47 0
41 -47 0
46 -47 0
42 43 -50 0
42 44 -50 0
-43 -44 50 0
43 44 -50 0
-42 -44 50 0
-42 -43 50 0
48 49 50 -51 0
48 49 -50 51 0
48 -49 50 51 0
48 -49 -50 -51 0
-48 49 50 51 0
-48 49 -50 -51 0
-48 -49 50 -51 0
-48 -49 -50 51 0
-51 -52 0
51 52 0
-47 -52 53 0
47 -53 0
52 -53 0
48 49 -56 0
48 50 -56 0
-49 -50 56 0
49 50 -56 0
-48 -50 56 0
-48 -49 56 0
54 55 56 -57 0
54 55 -56 57 0
54 -55 56 57 0
54 -55 -56 -57 0
-54 55 56 57 0
-54 55 -56 -57 0
-54 -55 56 -57 0
-54 -55 -56 57 0
-57 -58 0
57 58 0
-53 -58 59 0
53 -59 0
58 -59 0
54 55 -62 0
54 56 -62 0
-55 -56 62 0
55 56 -62 0
-54 -56 62 0
-54 -55 62 0
60 61 62 -63 0
60 61 -62 63 0
60 -61 62 63 0
60 -61 -62 -63 0
-60 61 62 63 0
-60 61 -62 -63 0
-60 -61 62 -63 0
-60 -61 -62 63 0
-63 -64 0
63 64 0
-59 -64 65 0
59 -65 0
64 -65 0
60 61 -68 0
60 62 -68 0
-61 -62 68 0
61 62 -68 0
-60 -62 68 0
-60 -61 68 0
66 67 68 -69 0
66 67 -68 69 0
66 -67 68 69 0
66 -67 -68 -69 0
-66 67 68 69 0
-66 67 -68 -69 0
-66 -67 68 -69 0
-66 -67 -68 69 0
-69 -70 0
69 70 0
-65 -70 71 0
65 -71 0
70 -71 0
66 67 -74 0
66 68 -74 0
-67 -68 74 0
67 68 -74 0
-66 -68 74 0
-66 -67 74 0
72 73 74 -75 0
72 73 -74 75 0
72 -73 74 75 0
72 -73 -74 -75 0
-72 73 74 75 0
-72 73 -74 -75 0
-72 -73 74 -75 0
-72 -73 -74 75 0
-75 -76 0
75 76 0
-71 -76 77 0
71 -77 0
76 -77 0
72 73 -80 0
72 74 -80 0
-73 -74 80 0
73 74 -80 0
-72 -74 80 0
-72 -73 80 0
78 79 80 -81 0
78 79 -80 81 0
78 -79 80 81 0
78 -79 -80 -81 0
-78 79 80 81 0
-78 79 -80 -81 0
-78 -79 80 -81 0
-78 -79 -80 81 0
-81 -82 0
81 82 0
-77 -82 83 0
77 -83 0
82 -83 0
78 79 -86 0
78 80 -86 0
-79 -80 86 0
79 80 -86 0
-78 -80 86 0
-78 -79 86 0
84 85 86 -87 0
84 85 -86 87 0
84 -85 86 87 0
84 -85 -86 -87 0
-84 85 86 87 0
-84 85 -86 -87 0
-84 -85 86 -87 0
-84 -85 -86 87 0
-87 -88 0
87 88 0
-83 -88 89 0
83 -89 0
88 -89 0
84 85 -92 0
84 86 -92 0
-85 -86 92 0
85 86 -92 0
-84 -86 92 0
-84 -85 92 0
90 91 92 -93 0
90 91 -92 93 0
90 -91 92 93 0
90 -91 -92 -93 0
-90 91 92 93 0
-90 91 -92 -93 0
-90 -91 92 -93 0
-90 -91 -92 93 0
-93 -94 0
93 94 0
-89 -94 95 0
89 -95 0
94 -95 0
90 91 -98 0
90 92 -98 0
-91 -92 98 0
91 92 -98 0
-90 -92 98 0
-90 -91 98 0
96 97 98 -99 0
96 97 -98 99 0
96 -97 98 99 0
96 -97 -98 -99 0
-96 97 98 99 0
-96 97 -98 -99 0
-96 -97 98 -99 0
-96 -97 -98 99 0
-99 -100 0
99 100 0
-95 -100 101 0
95 -101 0
100 -101 0
96 97 -104 0
96 98 -104 0
-97 -98 104 0
97 98 -104 0
-96 -98 104 0
-96 -97 104 0
102 103 104 -105 0
102 103 -104 105 0
102 -103 104 105 0
102 -103 -104 -105 0
-102 103 104 105 0
-102 103 -104 -105 0
-102 -103 104 -105 0
-102 -103 -104 105 0
-105 -106 0
105 106 0
-101 -106 107 0
101 -107 0
106 -107 0
102 103 -110 0
102 104 -110 0
-103 -104 110 0
103 104 -110 0
-102 -104 110 0
-102 -103 110 0
108 109 110 -111 0
108 109 -110 111 0
108 -109 110 111 0
108 -109 -110 -111 0
-108 109 110 111 0
-108 109 -110 -111 0
-108 -109 110 -111 0
-108 -109 -110 111 0
-111 -112 0
111 112 0
-107 -112 113 0
107 -113 0
112 -113 0
108 109 -116 0
108 110 -116 0
-109 -110 116 0
109 110 -116 0
-108 -110 116 0
-108 -109 116 0
114 115 116 -117 0
114 115 -116 117 0
114 -115 116 117 0
114 -115 -116 -117 0
-114 115 116 117 0
-114 115 -116 -117 0
-114 -115 116 -117 0
-114 -115 -116 117 0
-117 -118 0
117 118 0
-113 -118 119 0
113 -119 0
118 -119 0
114 115 -122 0
114 116 -122 0
-115 -116 122 0
115 116 -122 0
-114 -116 122 0
-114 -115 122 0
120 121 122 -123 0
120 121 -122 123 0
120 -121 122 123 0
120 -121 -122 -123 0
-120 121 122 123 0
-120 121 -122 -123 0
-120 -121 122 -123 0
-120 -121 -122 123 0
-123 -124 0
123 124 0
-119 -124 125 0
119 -125 0
124 -125 0
120 121 -128 0
120 122 -128 0
-121 -122 128 0
121 122 -128 0
-120 -122 128 0
-120 -121 128 0
126 127 128 -129 0
126 127 -128 129 0
126 -127 128 129 0
126 -127 -128 -129 0
-126 127 128 129 0
-126 127 -128 -129 0
-126 -127 128 -129 0
-126 -127 -128 129 0
-129 -130 0
129 130 0
-125 -130 131 0
125 -131 0
130 -131 0
126 127 -134 0
126 128 -134 0
-127 -128 134 0
127 128 -134 0
-126 -128 134 0
-126 -127 134 0
132 133 134 -135 0
132 133 -134 135 0
132 -133 134 135 0
132 -133 -134 -135 0
-132 133 134 135 0
-132 133 -134 -135 0
-132 -133 134 -135 0
-132 -133 -134 135 0
-135 -136 0
135 136 0
-131 -136 137 0
131 -137 0
136 -137 0
132 133 -140 0
132 134 -140 0
-133 -134 140 0
133 134 -140 0
-132 -134 140 0
-132 -133 140 0
138 139 140 -141 0
138 139 -140 141 0
138 -139 140 141 0
138 -139 -140 -141 0
-138 139 140 141 0
-138 139 -140 -141 0
-138 -139 140 -141 0
-138 -139 -140 141 0
-141 -142 0
141 142 0
-137 -142 143 0
137 -143 0
142 -143 0
138 139 -146 0
138 140 -146 0
-139 -140 146 0
139 140 -146 0
-138 -140 146 0
-138 -139 146 0
144 145 146 -147 0
144 145 -146 147 0
144 -145 146 147 0
144 -145 -146 -147 0
-144 145 146 147 0
-144 145 -146 -147 0
-144 -145 146 -147 0
-144 -145 -146 147 0
-147 -148 0
147 148 0
-143 -148 149 0
143 -149 0
148 -149 0
144 145 -152 0
144 146 -152 0
-145 -146 152 0
145 146 -152 0
-144 -146 152 0
-144 -145 152 0
150 151 152 -153 0
150 151 -152 153 0
150 -151 152 153 0
150 -151 -152 -153 0
-150 151 152 153 0
-150 151 -152 -153 0
-150 -151 152 -153 0
-150 -151 -152 153 0
-153 -154 0
153 154 0
-149 -154 155 0
149 -155 0
154 -155 0
150 151 -158 0
150 152 -158 0
-151 -152 158 0
151 152 -158 0
-150 -152 158 0
-150 -151 158 0
156 157 158 -159 0
156 157 -158 159 0
156 -157 158 159 0
156 -157 -158 -159 0
-156 157 158 159 0
-156 157 -158 -159 0
-156 -157 158 -159 0
-156 -157 -158 159 0
-159 -160 0
159 160 0
-155 -160 161 0
155 -161 0
160 -161 0
156 157 -164 0
156 158 -164 0
-157 -158 164 0
157 158 -164 0
-156 -158 164 0
-156 -157 164 0
162 163 164 -165 0
162 163 -164 165 0
162 -163 164 165 0
162 -163 -164 -165 0
-162 163 164 165 0
-162 163 -164 -165 0
-162 -163 164 -165 0
-162 -163 -164 165 0
-165 -166 0
165 166 0
-161 -166 167 0
161 -167 0
166 -167 0
162 163 -170 0
162 164 -170 0
-163 -164 170 0
163 164 -170 0
-162 -164 170 0
-162 -163 170 0
168 169 170 -171 0
168 169 -170 171 0
168 -169 170 171 0
168 -169 -170 -171 0
-168 169 170 171 0
-168 169 -170 -171 0
-168 -169 170 -171 0
-168 -169 -170 171 0
-171 -172 0
171 172 0
-167 -172 173 0
167 -173 0
172 -173 0
168 169 -176 0
168 170 -176 0
-169 -170 176 0
169 170 -176 0
-168 -170 176 0
-168 -169 176 0
174 175 176 -177 0
174 175 -176 177 0
174 -175 176 177 0
174 -175 -176 -177 0
-174 175 176 177 0
-174 175 -176 -177 0
-174 -175 176 -177 0
-174 -175 -176 177 0
-177 -178 0
177 178 0
-173 -178 179 0
173 -179 0
178 -179 0
174 175 -182 0
174 176 -182 0
-175 -176 182 0
175 176 -182 0
-174 -176 182 0
-174 -175 182 0
180 181 182 -183 0
180 181 -182 183 0
180 -181 182 183 0
180 -181 -182 -183 0
-180 181 182 183 0
-180 181 -182 -183 0
-180 -181 182 -183 0
-180 -181 -182 183 0
-183 -184 0
183 184 0
-179 -184 185 0
179 -185 0
184 -185 0
180 181 -188 0
180 182 -188 0
-181 -182 188 0
181 182 -188 0
-180 -182 188 0
-180 -181 188 0
186 187 188 -189 0
186 187 -188 189 0
186 -187 188 189 0
186 -187 -188 -189 0
-186 187 188 189 0
-186 187 -188 -189 0
-186 -187 188 -189 0
-186 -187 -188 189 0
-189 -190 0
189 190 0
-185 -190 191 0
185 -191 0
190 -191 0
186 187 -194 0
186 188 -194 0
-187 -188 194 0
187 188 -194 0
-186 -188 194 0
-186 -187 194 0
192 193 194 -195 0
192 193 -194 195 0
192 -193 194 195 0
192 -193 -194 -195 0
-192 193 194 195 0
-192 193 -194 -195 0
-192 -193 194 -195 0
-192 -193 -194 195 0
-195 -196 0
195 196 0
-191 -196 197 0
191 -197 0
196 -197 0
192 193 -200 0
192 194 -200 0
-193 -194 200 0
193 194 -200 0
-192 -194 200 0
-192 -193 200 0
198 199 200 -201 0
198 199 -200 201 0
198 -199 200 201 0
198 -199 -200 -201 0
-198 199 200 201 0
-198 199 -200 -201 0
-198 -199 200 -201 0
-198 -199 -200 201 0
-201 -202 0
201 202 0
-197 -202 203 0
197 -203 0
202 -203 0
198 199 -206 0
198 200 -206 0
-199 -200 206 0
199 200 -206 0
-198 -200 206 0
-198 -199 206 0
204 205 206 -207 0
204 205 -206 207 0
204 -205 206 207 0
204 -205 -206 -207 0
-204 205 206 207 0
-204 205 -206 -207 0
-204 -205 206 -207 0
-204 -205 -206 207 0
-207 -208 0
207 208 0
-203 -208 209 0
203 -209 0
208 -209 0
204 205 -212 0
204 206 -212 0
-205 -206 212 0
205 206 -212 0
-204 -206 212 0
-204 -205 212 0
210 211 212 -213 0
210 211 -212 213 0
210 -211 212 213 0
210 -211 -212 -213 0
-210 211 212 213 0
-210 211 -212 -213 0
-210 -211 212 -213 0
-210 -211 -212 213 0
-213 -214 0
213 214 0
-209 -214 215 0
209 -215 0
214 -215 0
210 211 -218 0
210 212 -218 0
-211 -212 218 0
211 212 -218 0
-210 -212 218 0
-210 -211 218 0
216 217 218 -219 0
216 217 -218 219 0
216 -217 218 219 0
216 -217 -218 -219 0
-216 217 218 219 0
-216 217 -218 -219 0
-216 -217 218 -219 0
-216 -217 -218 219 0
-219 -220 0
219 220 0
-215 -220 221 0
215 -221 0
220 -221 0
216 217 -224 0
216 218 -224 0
-217 -218 224 0
217 218 -224 0
-216 -218 224 0
-216 -217 224 0
222 223 224 -225 0
222 223 -224 225 0
222 -223 224 225 0
222 -223 -224 -225 0
-222 223 224 225 0
-222 223 -224 -225 0
-222 -223 224 -225 0
-222 -223 -224 225 0
-225 -226 0
225 226 0
-221 -226 227 0
221 -227 0
226 -227 0
222 223 -230 0
222 224 -230 0
-223 -224 230 0
223 224 -230 0
-222 -224 230 0
-222 -223 230 0
228 229 230 -231 0
228 229 -230 231 0
228 -229 230 231 0
228 -229 -230 -231 0
-228 229 230 231 0
-228 229 -230 -231 0
-228 -229 230 -231 0
-228 -229 -230 231 0
-231 -232 0
231 232 0
-227 -232 233 0
227 -233 0
232 -233 0
228 229 -236 0
228 230 -236 0
-229 -230 236 0
229 230 -236 0
-228 -230 236 0
-228 -229 236 0
234 235 236 -237 0
234 235 -236 237 0
234 -235 236 237 0
234 -235 -236 -237 0
-234 235 236 237 0
-234 235 -236 -237 0
-234 -235 236 -237 0
-234 -235 -236 237 0
-237 -238 0
237 238 0
-233 -238 239 0
233 -239 0
238 -239 0
234 235 -242 0
234 236 -242 0
-235 -236 242 0
235 236 -242 0
-234 -236 242 0
-234 -235 242 0
240 241 242 -243 0
240 241 -242 243 0
240 -241 242 243 0
240 -241 -242 -243 0
-240 241 242 243 0
-240 241 -242 -243 0
-240 -241 242 -243 0
-240 -241 -242 243 0
-243 -244 0
243 244 0
-239 -244 245 0
239 -245 0
244 -245 0
240 241 -248 0
240 242 -248 0
-241 -242 248 0
241 242 -248 0
-240 -242 248 0
-240 -241 248 0
246 247 248 -249 0
246 247 -248 249 0
246 -247 248 249 0
246 -247 -248 -249 0
-246 247 248 249 0
-246 247 -248 -249 0
-246 -247 248 -249 0
-246 -247 -248 249 0
-249 -250 0
249 250 0
-245 -250 251 0
245 -251 0
250 -251 0
246 247 -254 0
246 248 -254 0
-247 -248 254 0
247 248 -254 0
-246 -248 254 0
-246 -247 254 0
252 253 254 -255 0
252 253 -254 255 0
252 -253 254 255 0
252 -253 -254 -255 0
-252 253 254 255 0
-252 253 -254 -255 0
-252 -253 254 -255 0
-252 -253 -254 255 0
-255 -256 0
255 256 0
-251 -256 257 0
251 -257 0
256 -257 0
252 253 -260 0
252 254 -260 0
-253 -254 260 0
253 254 -260 0
-252 -254 260 0
-252 -253 260 0
258 259 260 -261 0
258 259 -260 261 0
258 -259 260 261 0
258 -259 -260 -261 0
-258 259 260 261 0
-258 259 -260 -261 0
-258 -259 260 -261 0
-258 -259 -260 261 0
-261 -262 0
261 262 0
-257 -262 263 0
257 -263 0
262 -263 0
258 259 -266 0
258 260 -266 0
-259 -260 266 0
259 260 -266 0
-258 -260 266 0
-258 -259 266 0
264 265 266 -267 0
264 265 -266 267 0
264 -265 266 267 0
264 -265 -266 -267 0
-264 265 266 267 0
-264 265 -266 -267 0
-264 -265 266 -267 0
-264 -265 -266 267 0
-267 -268 0
267 268 0
-263 -268 269 0
263 -269 0
268 -269 0
264 265 -272 0
264 266 -272 0
-265 -266 272 0
265 266 -272 0
-264 -266 272 0
-264 -265 272 0
270 271 272 -273 0
270 271 -272 273 0
270 -271 272 273 0
270 -271 -272 -273 0
-270 271 272 273 0
-270 271 -272 -273 0
-270 -271 272 -273 0
-270 -271 -272 273 0
-273 -274 0
273 274 0
-269 -274 275 0
269 -275 0
274 -275 0
270 271 -278 0
270 272 -278 0
-271 -272 278 0
271 272 -278 0
-270 -272 278 0
-270 -271 278 0
276 277 278 -279 0
276 277 -278 279 0
276 -277 278 279 0
276 -277 -278 -279 0
-276 277 278 279 0
-276 277 -278 -279 0
-276 -277 278 -279 0
-276 -277 -278 279 0
-279 -280 0
279 280 0
-275 -280 281 0
275 -281 0
280 -281 0
276 277 -284 0
276 278 -284 0
-277 -278 284 0
277 278 -284 0
-276 -278 284 0
-276 -277 284 0
282 283 284 -285 0
282 283 -284 285 0
282 -283 284 285 0
282 -283 -284 -285 0
-282 283 284 285 0
-282 283 -284 -285 0
-282 -283 284 -285 0
-282 -283 -284 285 0
-285 -286 0
285 286 0
-281 -286 287 0
281 -287 0
286 -287 0
282 283 -290 0
282 284 -290 0
-283 -284 290 0
283 284 -290 0
-282 -284 290 0
-282 -283 290 0
288 289 290 -291 0
288 289 -290 291 0
288 -289 290 291 0
288 -289 -290 -291 0
-288 289 290 291 0
-288 289 -290 -291 0
-288 -289 290 -291 0
-288 -289 -290 291 0
-291 -292 0
291 292 0
-287 -292 293 0
287 -293 0
292 -293 0
288 289 -296 0
288 290 -296 0
-289 -290 296 0
289 290 -296 0
-288 -290 296 0
-288 -289 296 0
294 295 296 -297 0
294 295 -296 297 0
294 -295 296 297 0
294 -295 -296 -297 0
-294 295 296 297 0
-294 295 -296 -297 0
-294 -295 296 -297 0
-294 -295 -296 297 0
-297 -298 0
297 298 0
-293 -298 299 0
293 -299 0
298 -299 0
294 295 -302 0
294 296 -302 0
-295 -296 302 0
295 296 -302 0
-294 -296 302 0
-294 -295 302 0
300 301 302 -303 0
300 301 -302 303 0
300 -301 302 303 0
300 -301 -302 -303 0
-300 301 302 303 0
-300 301 -302 -303 0
-300 -301 302 -303 0
-300 -301 -302 303 0
-303 -304 0
303 304 0
-299 -304 305 0
299 -305 0
304 -305 0
300 301 -308 0
300 302 -308 0
-301 -302 308 0
301 302 -308 0
-300 -302 308 0
-300 -301 308 0
306 307 308 -309 0
306 307 -308 309 0
306 -307 308 309 0
306 -307 -308 -309 0
-306 307 308 309 0
-306 307 -308 -309 0
-306 -307 308 -309 0
-306 -307 -308 309 0
-309 -310 0
309 310 0
-305 -310 311 0
305 -311 0
310 -311 0
306 307 -314 0
306 308 -314 0
-307 -308 314 0
307 308 -314 0
-306 -308 314 0
-306 -307 314 0
312 313 314 -315 0
312 313 -314 315 0
312 -313 314 315 0
312 -313 -314 -315 0
-312 313 314 315 0
-312 313 -314 -315 0
-312 -313 314 -315 0
-312 -313 -314 315 0
-315 -316 0
315 316 0
-311 -316 317 0
311 -317 0
316 -317 0
312 313 -320 0
312 314 -320 0
-313 -314 320 0
313 314 -320 0
-312 -314 320 0
-312 -313 320 0
318 319 320 -321 0
318 319 -320 321 0
318 -319 320 321 0
318 -319 -320 -321 0
-318 319 320 321 0
-318 319 -320 -321 0
-318 -319 320 -321 0
-318 -319 -320 321 0
-321 -322 0
321 322 0
-317 -322 323 0
317 -323 0
322 -323 0
318 319 -326 0
318 320 -326 0
-319 -320 326 0
319 320 -326 0
-318 -320 326 0
-318 -319 326 0
324 325 326 -327 0
324 325 -326 327 0
324 -325 326 327 0
324 -325 -326 -327 0
-324 325 326 327 0
-324 325 -326 -327 0
-324 -325 326 -327 0
-324 -325 -326 327 0
-327 -328 0
327 328 0
-323 -328 329 0
323 -329 0
328 -329 0
329 0
